Geographic Exponential Decay
40 68 42 312 17 170 111 241 260 5 297 230 73 262 214 26 239 109 30 60 56 119 160 7 204 83 57 0 205 231 232 93 211 307 223 247 264 21 20 242 113
p edge 320 1222
e 0 134 11.0
e 0 44 19.0
e 0 22 48.0
e 0 203 80.0
e 0 74 17.0
e 0 13 36.0
e 0 153 17.0
e 0 53 99.0
e 0 76 62.0
e 0 154 100.0
e 0 90 76.0
e 0 251 65.0
e 0 31 83.0
e 0 206 93.0
e 0 49 87.0
e 0 35 78.0
e 0 278 14.0
e 0 223 33.0
e 0 65 79.0
e 0 116 86.0
e 0 195 91.0
e 0 135 25.0
e 0 183 91.0
e 0 32 81.0
e 0 293 39.0
e 0 72 71.0
e 0 82 84.0
e 1 215 9.0
e 1 29 4.0
e 2 112 1.0
e 3 299 2.0
e 4 211 5.0
e 5 307 92.0
e 5 68 56.0
e 5 308 69.0
e 5 280 18.0
e 5 311 36.0
e 5 179 53.0
e 5 296 48.0
e 5 181 12.0
e 5 117 62.0
e 5 118 1.0
e 5 29 53.0
e 5 172 88.0
e 5 279 99.0
e 5 284 47.0
e 5 221 48.0
e 5 212 49.0
e 5 74 100.0
e 5 174 67.0
e 5 168 52.0
e 5 231 22.0
e 5 175 20.0
e 5 25 28.0
e 5 127 32.0
e 5 309 34.0
e 5 277 6.0
e 5 214 55.0
e 5 122 67.0
e 6 276 2.0
e 7 69 69.0
e 7 56 15.0
e 7 310 80.0
e 7 307 50.0
e 7 133 33.0
e 7 89 86.0
e 7 118 34.0
e 7 111 1.0
e 7 61 96.0
e 7 203 24.0
e 7 271 31.0
e 7 291 85.0
e 7 142 72.0
e 7 85 100.0
e 7 100 45.0
e 7 308 11.0
e 7 309 37.0
e 7 207 36.0
e 7 317 54.0
e 7 71 66.0
e 7 217 66.0
e 7 14 99.0
e 7 138 9.0
e 7 183 96.0
e 7 70 70.0
e 7 44 36.0
e 7 248 75.0
e 8 25 1.0
e 9 188 1.0
e 9 29 2.0
e 9 284 8.0
e 9 190 2.0
e 10 119 47.0
e 11 310 2.0
e 12 234 1.0
e 13 275 2.0
e 15 104 1.0
e 16 55 2.0
e 17 104 75.0
e 17 213 89.0
e 17 178 80.0
e 17 84 80.0
e 17 191 76.0
e 17 248 23.0
e 17 259 40.0
e 17 88 67.0
e 17 196 17.0
e 17 304 75.0
e 17 50 2.0
e 17 117 46.0
e 17 208 34.0
e 17 66 25.0
e 17 284 23.0
e 17 232 100.0
e 17 96 54.0
e 17 25 23.0
e 17 154 52.0
e 17 56 100.0
e 17 83 48.0
e 17 155 17.0
e 17 150 44.0
e 17 7 86.0
e 17 116 39.0
e 17 231 4.0
e 17 233 2.0
e 18 317 3.0
e 19 271 12.0
e 19 67 1.0
e 19 86 5.0
e 19 105 11.0
e 20 301 73.0
e 20 152 23.0
e 20 136 53.0
e 20 83 80.0
e 20 30 84.0
e 20 101 83.0
e 20 75 94.0
e 20 36 90.0
e 20 292 94.0
e 20 133 23.0
e 20 156 93.0
e 20 102 49.0
e 20 91 68.0
e 20 7 2.0
e 20 14 98.0
e 20 76 38.0
e 20 94 44.0
e 20 72 89.0
e 20 268 95.0
e 20 93 53.0
e 20 103 79.0
e 20 88 96.0
e 20 162 88.0
e 20 144 81.0
e 20 79 29.0
e 20 178 21.0
e 20 188 14.0
e 21 0 2.0
e 21 113 58.0
e 21 219 100.0
e 21 12 80.0
e 21 216 37.0
e 21 111 35.0
e 21 249 76.0
e 21 81 12.0
e 21 9 42.0
e 21 194 42.0
e 21 251 87.0
e 21 101 46.0
e 21 67 40.0
e 21 150 40.0
e 21 117 14.0
e 21 273 60.0
e 21 123 57.0
e 21 310 28.0
e 21 114 31.0
e 21 158 60.0
e 21 236 39.0
e 21 175 71.0
e 21 153 90.0
e 21 178 41.0
e 21 34 80.0
e 21 35 51.0
e 21 17 88.0
e 22 55 2.0
e 23 82 3.0
e 23 308 12.0
e 24 219 1.0
e 24 313 1.0
e 26 13 53.0
e 26 317 85.0
e 26 95 83.0
e 26 148 72.0
e 26 282 68.0
e 26 149 25.0
e 26 162 76.0
e 26 67 77.0
e 26 237 75.0
e 26 209 92.0
e 26 316 51.0
e 26 191 4.0
e 26 152 96.0
e 26 275 75.0
e 26 18 42.0
e 26 244 70.0
e 26 42 24.0
e 26 183 95.0
e 26 84 76.0
e 26 277 75.0
e 26 312 30.0
e 26 308 96.0
e 26 125 44.0
e 26 289 92.0
e 26 2 43.0
e 26 28 17.0
e 26 272 54.0
e 27 191 1.0
e 27 295 1.0
e 28 68 29.0
e 28 117 1.0
e 28 57 38.0
e 30 131 49.0
e 30 248 37.0
e 30 115 40.0
e 30 112 9.0
e 30 134 90.0
e 30 17 21.0
e 30 132 93.0
e 30 162 39.0
e 30 84 2.0
e 30 10 76.0
e 30 315 10.0
e 30 208 95.0
e 30 175 76.0
e 30 246 58.0
e 30 304 48.0
e 30 11 93.0
e 30 310 2.0
e 30 199 92.0
e 30 284 68.0
e 30 91 47.0
e 30 215 64.0
e 30 318 90.0
e 30 103 13.0
e 30 7 93.0
e 30 140 91.0
e 30 258 28.0
e 32 129 3.0
e 33 210 16.0
e 33 86 24.0
e 33 314 4.0
e 33 113 83.0
e 33 94 1.0
e 33 17 47.0
e 33 296 18.0
e 36 99 1.0
e 37 28 1.0
e 38 114 1.0
e 39 301 1.0
e 39 313 1.0
e 40 285 4.0
e 41 42 55.0
e 42 301 16.0
e 42 142 53.0
e 42 74 57.0
e 42 311 26.0
e 42 199 46.0
e 42 120 31.0
e 42 15 68.0
e 42 214 86.0
e 42 250 52.0
e 42 25 63.0
e 42 49 82.0
e 42 98 2.0
e 42 228 83.0
e 42 258 54.0
e 42 67 19.0
e 42 54 53.0
e 42 176 11.0
e 42 29 81.0
e 42 0 100.0
e 42 129 83.0
e 42 114 18.0
e 42 100 98.0
e 42 248 25.0
e 42 233 47.0
e 42 16 45.0
e 43 315 1.0
e 44 10 20.0
e 44 211 59.0
e 44 255 8.0
e 44 272 12.0
e 44 290 6.0
e 45 118 2.0
e 46 170 98.0
e 47 298 4.0
e 47 119 5.0
e 48 88 1.0
e 51 117 1.0
e 51 315 1.0
e 52 317 13.0
e 56 86 38.0
e 56 281 85.0
e 56 288 62.0
e 56 198 32.0
e 56 283 97.0
e 56 148 82.0
e 56 27 18.0
e 56 275 33.0
e 56 299 61.0
e 56 77 75.0
e 56 191 35.0
e 56 212 83.0
e 56 256 44.0
e 56 109 90.0
e 56 9 1.0
e 56 317 38.0
e 56 215 81.0
e 56 222 38.0
e 56 244 92.0
e 56 69 79.0
e 56 267 13.0
e 56 135 40.0
e 56 14 16.0
e 56 302 86.0
e 56 78 29.0
e 57 194 87.0
e 57 256 52.0
e 57 289 2.0
e 57 288 76.0
e 57 52 83.0
e 57 195 81.0
e 57 76 25.0
e 57 208 19.0
e 57 157 87.0
e 57 130 31.0
e 57 310 33.0
e 57 240 17.0
e 57 183 85.0
e 57 277 24.0
e 57 170 54.0
e 57 0 9.0
e 57 21 26.0
e 57 304 21.0
e 57 311 82.0
e 57 62 48.0
e 57 272 29.0
e 57 145 92.0
e 57 6 94.0
e 57 114 45.0
e 57 179 29.0
e 57 254 26.0
e 58 63 1.0
e 58 24 1.0
e 59 107 1.0
e 59 204 75.0
e 59 128 12.0
e 59 190 8.0
e 60 17 79.0
e 60 13 47.0
e 60 191 40.0
e 60 136 79.0
e 60 147 61.0
e 60 289 77.0
e 60 214 88.0
e 60 284 91.0
e 60 28 88.0
e 60 85 79.0
e 60 237 92.0
e 60 243 65.0
e 60 301 50.0
e 60 101 31.0
e 60 287 43.0
e 60 34 54.0
e 60 36 9.0
e 60 273 97.0
e 60 5 32.0
e 60 183 66.0
e 60 232 6.0
e 60 203 98.0
e 60 76 16.0
e 60 18 33.0
e 60 315 36.0
e 60 48 54.0
e 60 171 99.0
e 61 50 7.0
e 61 42 42.0
e 61 189 1.0
e 64 97 3.0
e 64 37 3.0
e 64 19 9.0
e 64 128 10.0
e 65 221 1.0
e 65 312 85.0
e 65 118 2.0
e 68 17 11.0
e 68 101 90.0
e 68 73 97.0
e 68 254 84.0
e 68 114 3.0
e 68 214 44.0
e 68 24 69.0
e 68 308 8.0
e 68 78 30.0
e 68 181 71.0
e 68 35 11.0
e 68 29 32.0
e 68 264 80.0
e 68 125 97.0
e 68 238 66.0
e 68 288 89.0
e 68 34 20.0
e 68 44 94.0
e 68 169 79.0
e 68 237 44.0
e 68 110 71.0
e 68 243 95.0
e 68 249 81.0
e 68 260 85.0
e 68 115 16.0
e 70 12 1.0
e 73 44 14.0
e 73 45 44.0
e 73 153 31.0
e 73 129 5.0
e 73 161 86.0
e 73 140 89.0
e 73 91 84.0
e 73 254 12.0
e 73 265 80.0
e 73 204 38.0
e 73 289 41.0
e 73 246 72.0
e 73 139 91.0
e 73 229 56.0
e 73 62 31.0
e 73 253 50.0
e 73 175 42.0
e 73 197 5.0
e 73 293 32.0
e 73 71 93.0
e 73 85 64.0
e 73 70 29.0
e 73 266 69.0
e 73 58 34.0
e 73 259 74.0
e 73 284 85.0
e 75 33 14.0
e 77 195 1.0
e 80 310 5.0
e 80 86 3.0
e 80 202 21.0
e 80 184 17.0
e 80 240 14.0
e 80 173 13.0
e 80 11 17.0
e 83 158 31.0
e 83 10 12.0
e 83 6 68.0
e 83 232 38.0
e 83 128 62.0
e 83 273 69.0
e 83 37 97.0
e 83 51 79.0
e 83 91 55.0
e 83 92 68.0
e 83 56 98.0
e 83 132 11.0
e 83 2 52.0
e 83 190 56.0
e 83 11 86.0
e 83 74 53.0
e 83 38 67.0
e 83 96 13.0
e 83 152 46.0
e 83 198 58.0
e 83 199 93.0
e 83 266 44.0
e 83 269 97.0
e 83 290 44.0
e 83 40 9.0
e 86 317 2.0
e 86 113 17.0
e 86 85 32.0
e 86 18 39.0
e 86 148 49.0
e 86 156 7.0
e 86 2 48.0
e 86 145 33.0
e 86 126 8.0
e 86 220 28.0
e 87 146 1.0
e 93 236 67.0
e 93 96 12.0
e 93 182 21.0
e 93 21 85.0
e 93 305 52.0
e 93 137 57.0
e 93 202 66.0
e 93 218 8.0
e 93 203 9.0
e 93 207 81.0
e 93 23 8.0
e 93 123 36.0
e 93 4 2.0
e 93 270 12.0
e 93 243 22.0
e 93 239 49.0
e 93 108 8.0
e 93 251 87.0
e 93 61 90.0
e 93 235 74.0
e 93 208 34.0
e 93 94 53.0
e 93 133 98.0
e 93 186 42.0
e 93 296 7.0
e 93 28 98.0
e 94 261 7.0
e 95 228 2.0
e 99 39 1.0
e 105 296 1.0
e 106 107 1.0
e 108 173 1.0
e 109 205 61.0
e 109 143 7.0
e 109 286 23.0
e 109 116 22.0
e 109 203 67.0
e 109 171 16.0
e 109 158 63.0
e 109 243 32.0
e 109 313 14.0
e 109 86 36.0
e 109 4 73.0
e 109 26 45.0
e 109 113 74.0
e 109 162 49.0
e 109 301 21.0
e 109 129 43.0
e 109 103 59.0
e 109 101 71.0
e 109 128 19.0
e 109 172 13.0
e 109 237 34.0
e 109 296 54.0
e 109 64 69.0
e 109 183 3.0
e 109 38 97.0
e 109 192 61.0
e 111 130 13.0
e 111 25 1.0
e 111 171 3.0
e 111 97 7.0
e 111 183 98.0
e 111 94 96.0
e 111 293 5.0
e 111 49 41.0
e 111 123 15.0
e 111 38 62.0
e 111 159 94.0
e 111 156 100.0
e 111 104 77.0
e 111 300 65.0
e 111 259 60.0
e 111 255 70.0
e 111 246 93.0
e 111 196 12.0
e 111 37 50.0
e 111 231 13.0
e 111 80 14.0
e 111 96 15.0
e 111 61 46.0
e 111 43 12.0
e 111 297 5.0
e 113 315 36.0
e 113 294 41.0
e 113 232 79.0
e 113 34 13.0
e 113 49 78.0
e 113 240 99.0
e 113 277 34.0
e 113 131 83.0
e 113 126 64.0
e 113 198 51.0
e 113 19 71.0
e 113 157 45.0
e 113 40 24.0
e 113 143 69.0
e 113 16 38.0
e 113 73 37.0
e 113 303 88.0
e 113 76 87.0
e 113 199 89.0
e 113 276 90.0
e 113 89 3.0
e 113 207 2.0
e 113 79 84.0
e 119 247 64.0
e 119 170 32.0
e 119 61 7.0
e 119 161 54.0
e 119 293 54.0
e 119 268 79.0
e 119 295 44.0
e 119 157 49.0
e 119 80 46.0
e 119 301 45.0
e 119 110 1.0
e 119 296 15.0
e 119 153 74.0
e 119 303 48.0
e 119 66 32.0
e 119 310 21.0
e 119 63 28.0
e 119 149 5.0
e 119 12 31.0
e 119 274 54.0
e 119 133 42.0
e 119 210 94.0
e 119 25 57.0
e 119 72 46.0
e 119 155 54.0
e 121 106 1.0
e 124 301 3.0
e 124 236 2.0
e 130 8 8.0
e 130 86 14.0
e 141 129 3.0
e 143 82 11.0
e 143 135 5.0
e 144 165 4.0
e 148 89 12.0
e 148 284 8.0
e 148 290 4.0
e 148 17 100.0
e 149 28 7.0
e 149 316 2.0
e 151 285 1.0
e 151 155 1.0
e 159 123 5.0
e 160 64 70.0
e 160 223 6.0
e 160 262 79.0
e 160 123 66.0
e 160 146 98.0
e 160 260 13.0
e 160 83 5.0
e 160 285 88.0
e 160 252 98.0
e 160 213 79.0
e 160 46 42.0
e 160 71 39.0
e 160 53 78.0
e 160 231 37.0
e 160 114 94.0
e 160 275 35.0
e 160 131 83.0
e 160 51 24.0
e 160 54 20.0
e 160 35 24.0
e 160 4 97.0
e 160 2 46.0
e 160 137 29.0
e 160 34 11.0
e 160 226 48.0
e 160 243 5.0
e 160 257 27.0
e 163 71 2.0
e 164 313 1.0
e 164 255 2.0
e 165 223 37.0
e 166 113 48.0
e 166 272 2.0
e 167 161 2.0
e 170 296 58.0
e 170 122 67.0
e 170 261 76.0
e 170 43 73.0
e 170 289 66.0
e 170 210 73.0
e 170 47 55.0
e 170 213 8.0
e 170 11 58.0
e 170 69 23.0
e 170 178 64.0
e 170 256 16.0
e 170 48 17.0
e 170 286 46.0
e 170 116 45.0
e 170 92 5.0
e 170 237 48.0
e 170 288 57.0
e 170 163 86.0
e 170 279 44.0
e 170 91 78.0
e 170 66 2.0
e 170 302 3.0
e 170 262 71.0
e 177 127 1.0
e 180 223 16.0
e 180 317 18.0
e 181 210 1.0
e 181 112 12.0
e 182 290 2.0
e 184 111 86.0
e 184 168 10.0
e 184 165 5.0
e 185 99 3.0
e 185 74 8.0
e 185 283 8.0
e 185 85 8.0
e 187 271 2.0
e 190 38 5.0
e 192 219 5.0
e 192 306 6.0
e 192 239 50.0
e 193 89 1.0
e 195 309 1.0
e 195 35 1.0
e 195 314 13.0
e 195 153 20.0
e 200 218 1.0
e 201 229 2.0
e 204 171 20.0
e 204 154 95.0
e 204 140 48.0
e 204 317 71.0
e 204 110 20.0
e 204 252 94.0
e 204 83 17.0
e 204 146 53.0
e 204 138 79.0
e 204 215 68.0
e 204 174 78.0
e 204 103 2.0
e 204 70 85.0
e 204 24 80.0
e 204 227 36.0
e 204 294 15.0
e 204 57 40.0
e 204 176 65.0
e 204 107 90.0
e 204 166 22.0
e 204 221 90.0
e 204 228 7.0
e 204 108 75.0
e 204 148 57.0
e 204 16 29.0
e 205 300 38.0
e 205 136 91.0
e 205 254 19.0
e 205 66 100.0
e 205 182 71.0
e 205 308 46.0
e 205 307 30.0
e 205 241 48.0
e 205 203 43.0
e 205 9 99.0
e 205 232 89.0
e 205 38 52.0
e 205 5 71.0
e 205 256 38.0
e 205 77 15.0
e 205 18 42.0
e 205 152 14.0
e 205 79 96.0
e 205 80 100.0
e 205 36 92.0
e 205 242 23.0
e 205 81 83.0
e 205 303 35.0
e 205 105 98.0
e 205 67 59.0
e 205 278 69.0
e 206 188 2.0
e 209 263 6.0
e 211 81 26.0
e 211 90 49.0
e 211 157 18.0
e 211 249 44.0
e 211 207 90.0
e 211 290 73.0
e 211 107 40.0
e 211 45 34.0
e 211 233 66.0
e 211 200 28.0
e 211 120 97.0
e 211 281 67.0
e 211 302 40.0
e 211 89 64.0
e 211 24 53.0
e 211 297 33.0
e 211 76 15.0
e 211 195 80.0
e 211 280 26.0
e 211 204 52.0
e 211 163 14.0
e 211 164 11.0
e 211 196 80.0
e 211 16 66.0
e 211 121 97.0
e 214 40 10.0
e 214 48 65.0
e 214 274 60.0
e 214 113 55.0
e 214 75 14.0
e 214 202 76.0
e 214 198 99.0
e 214 27 22.0
e 214 19 18.0
e 214 112 75.0
e 214 237 58.0
e 214 200 39.0
e 214 20 94.0
e 214 135 29.0
e 214 57 47.0
e 214 153 43.0
e 214 132 24.0
e 214 160 84.0
e 214 82 43.0
e 214 276 5.0
e 214 123 29.0
e 214 43 48.0
e 214 154 6.0
e 215 99 14.0
e 215 49 3.0
e 215 2 14.0
e 222 53 2.0
e 223 159 3.0
e 223 9 84.0
e 223 221 53.0
e 223 16 2.0
e 223 157 92.0
e 223 146 84.0
e 223 257 17.0
e 223 95 7.0
e 223 193 40.0
e 223 208 74.0
e 223 10 82.0
e 223 195 6.0
e 223 54 93.0
e 223 274 53.0
e 223 105 21.0
e 223 75 93.0
e 223 120 26.0
e 223 40 8.0
e 223 176 65.0
e 223 72 70.0
e 223 272 79.0
e 223 235 41.0
e 223 261 73.0
e 224 67 5.0
e 224 299 3.0
e 225 60 40.0
e 225 11 12.0
e 225 285 1.0
e 225 270 1.0
e 230 304 67.0
e 230 117 100.0
e 230 82 94.0
e 230 163 40.0
e 230 86 37.0
e 230 297 39.0
e 230 245 71.0
e 230 16 98.0
e 230 41 17.0
e 230 254 56.0
e 230 91 27.0
e 230 5 65.0
e 230 201 93.0
e 230 25 1.0
e 230 166 58.0
e 230 189 91.0
e 230 104 27.0
e 230 68 32.0
e 230 292 80.0
e 230 12 73.0
e 230 147 51.0
e 230 160 59.0
e 230 198 44.0
e 230 69 79.0
e 230 314 26.0
e 230 272 20.0
e 230 88 76.0
e 231 125 51.0
e 231 49 80.0
e 231 249 64.0
e 231 128 75.0
e 231 284 43.0
e 231 97 16.0
e 231 158 35.0
e 231 188 62.0
e 231 267 73.0
e 231 52 83.0
e 231 294 72.0
e 231 173 72.0
e 231 171 4.0
e 231 285 77.0
e 231 280 69.0
e 231 253 22.0
e 231 101 95.0
e 231 196 95.0
e 231 185 20.0
e 231 219 37.0
e 231 309 66.0
e 231 307 11.0
e 231 243 90.0
e 232 95 23.0
e 232 212 3.0
e 232 228 13.0
e 232 223 46.0
e 232 231 36.0
e 232 133 28.0
e 232 70 97.0
e 232 274 51.0
e 232 176 55.0
e 232 112 65.0
e 232 56 84.0
e 232 53 23.0
e 232 233 32.0
e 232 34 76.0
e 232 161 34.0
e 232 305 55.0
e 232 104 59.0
e 232 114 35.0
e 232 275 17.0
e 232 224 67.0
e 232 179 10.0
e 232 108 27.0
e 239 32 19.0
e 239 248 39.0
e 239 122 39.0
e 239 227 42.0
e 239 213 82.0
e 239 243 16.0
e 239 256 42.0
e 239 15 61.0
e 239 6 24.0
e 239 10 50.0
e 239 153 93.0
e 239 314 26.0
e 239 33 51.0
e 239 267 44.0
e 239 59 30.0
e 239 97 5.0
e 239 127 62.0
e 239 223 88.0
e 239 308 33.0
e 239 151 58.0
e 239 199 30.0
e 239 207 50.0
e 239 180 25.0
e 239 224 25.0
e 239 138 81.0
e 241 232 11.0
e 241 58 58.0
e 241 77 23.0
e 241 224 20.0
e 241 231 68.0
e 241 230 61.0
e 241 251 38.0
e 241 285 52.0
e 241 249 39.0
e 241 212 57.0
e 241 200 60.0
e 241 116 49.0
e 241 226 17.0
e 241 233 85.0
e 241 85 58.0
e 241 275 64.0
e 241 132 69.0
e 241 139 5.0
e 241 127 39.0
e 241 235 19.0
e 241 130 49.0
e 241 143 74.0
e 241 284 92.0
e 241 98 33.0
e 241 315 61.0
e 241 18 43.0
e 242 256 66.0
e 242 254 38.0
e 242 117 55.0
e 242 56 98.0
e 242 180 23.0
e 242 194 18.0
e 242 156 98.0
e 242 42 1.0
e 242 304 93.0
e 242 0 67.0
e 242 50 79.0
e 242 71 45.0
e 242 15 43.0
e 242 2 96.0
e 242 236 22.0
e 242 48 80.0
e 242 210 71.0
e 242 112 80.0
e 242 67 35.0
e 242 63 34.0
e 242 244 89.0
e 242 278 71.0
e 242 40 63.0
e 242 170 19.0
e 242 164 90.0
e 242 126 50.0
e 247 145 12.0
e 247 91 97.0
e 247 195 59.0
e 247 233 19.0
e 247 228 95.0
e 247 100 36.0
e 247 27 12.0
e 247 134 34.0
e 247 19 90.0
e 247 28 39.0
e 247 55 92.0
e 247 198 36.0
e 247 101 58.0
e 247 270 34.0
e 247 278 3.0
e 247 178 27.0
e 247 149 51.0
e 247 63 7.0
e 247 115 22.0
e 247 29 52.0
e 247 188 74.0
e 247 181 79.0
e 247 267 84.0
e 247 248 15.0
e 247 241 91.0
e 247 121 20.0
e 250 245 8.0
e 250 52 21.0
e 250 33 9.0
e 250 111 62.0
e 250 77 2.0
e 250 302 9.0
e 251 178 12.0
e 251 193 3.0
e 251 57 96.0
e 258 206 14.0
e 258 156 7.0
e 258 12 11.0
e 258 190 21.0
e 258 261 22.0
e 260 145 99.0
e 260 271 64.0
e 260 109 89.0
e 260 219 41.0
e 260 102 68.0
e 260 113 88.0
e 260 268 96.0
e 260 157 100.0
e 260 12 34.0
e 260 135 56.0
e 260 147 22.0
e 260 175 22.0
e 260 99 21.0
e 260 97 70.0
e 260 231 34.0
e 260 127 58.0
e 260 298 82.0
e 260 191 9.0
e 260 124 57.0
e 260 258 87.0
e 260 216 45.0
e 260 4 20.0
e 260 217 69.0
e 260 290 48.0
e 260 32 13.0
e 262 184 11.0
e 262 282 63.0
e 262 305 30.0
e 262 303 61.0
e 262 121 32.0
e 262 149 19.0
e 262 237 99.0
e 262 188 10.0
e 262 198 33.0
e 262 241 49.0
e 262 84 65.0
e 262 26 36.0
e 262 256 88.0
e 262 20 1.0
e 262 225 76.0
e 262 126 68.0
e 262 238 12.0
e 262 232 33.0
e 262 217 21.0
e 262 10 94.0
e 262 313 19.0
e 262 165 61.0
e 262 286 84.0
e 262 211 91.0
e 262 80 99.0
e 264 248 89.0
e 264 190 73.0
e 264 97 10.0
e 264 261 66.0
e 264 6 32.0
e 264 15 7.0
e 264 118 94.0
e 264 130 42.0
e 264 158 74.0
e 264 206 45.0
e 264 34 99.0
e 264 306 1.0
e 264 69 35.0
e 264 302 59.0
e 264 200 92.0
e 264 147 3.0
e 264 212 48.0
e 264 38 68.0
e 264 79 80.0
e 264 151 24.0
e 264 179 21.0
e 264 199 14.0
e 264 159 8.0
e 264 283 26.0
e 264 255 1.0
e 264 188 56.0
e 270 196 12.0
e 278 141 11.0
e 278 304 6.0
e 278 73 49.0
e 291 43 2.0
e 291 71 21.0
e 291 232 61.0
e 291 177 1.0
e 291 253 17.0
e 291 18 15.0
e 297 267 30.0
e 297 19 49.0
e 297 202 31.0
e 297 20 73.0
e 297 75 75.0
e 297 137 37.0
e 297 55 16.0
e 297 1 40.0
e 297 212 51.0
e 297 242 30.0
e 297 278 5.0
e 297 128 69.0
e 297 13 17.0
e 297 136 16.0
e 297 317 88.0
e 297 154 22.0
e 297 201 76.0
e 297 110 87.0
e 297 283 87.0
e 297 207 43.0
e 297 174 69.0
e 297 113 55.0
e 297 208 12.0
e 297 184 62.0
e 298 194 7.0
e 298 254 3.0
e 307 195 35.0
e 307 267 32.0
e 307 196 96.0
e 307 30 77.0
e 307 56 54.0
e 307 258 1.0
e 307 11 27.0
e 307 298 4.0
e 307 28 71.0
e 307 308 89.0
e 307 132 68.0
e 307 39 26.0
e 307 112 62.0
e 307 99 42.0
e 307 162 22.0
e 307 6 63.0
e 307 93 5.0
e 307 102 65.0
e 307 75 78.0
e 307 227 6.0
e 307 110 61.0
e 307 43 63.0
e 307 189 58.0
e 311 119 2.0
e 312 204 99.0
e 312 160 100.0
e 312 304 54.0
e 312 39 3.0
e 312 219 62.0
e 312 274 51.0
e 312 97 37.0
e 312 107 24.0
e 312 189 93.0
e 312 311 5.0
e 312 37 98.0
e 312 267 54.0
e 312 157 8.0
e 312 285 54.0
e 312 191 21.0
e 312 151 95.0
e 312 119 46.0
e 312 228 48.0
e 312 252 64.0
e 312 85 21.0
e 312 244 74.0
e 312 54 92.0
e 312 73 76.0
e 312 216 92.0
e 312 313 42.0
e 319 270 48.0
e 319 137 33.0
e 319 136 1.0
e 319 302 25.0
e 319 95 8.0
e 319 140 7.0
e 319 314 25.0
e 319 169 40.0
e 319 74 44.0
e 319 89 42.0
e 319 212 23.0
e 319 47 2.0
e 319 32 19.0
e 319 271 19.0
